n_res = 4;
rc = [ 38, 42, 46, 25 ];
n_tasks = 30;
d = [ 8, 4, 9, 6, 8, 8, 4, 6, 10, 5, 1, 2, 5, 9, 10, 6, 10, 6, 8, 10, 3, 7, 7, 10, 3, 3, 2, 8, 1, 2 ];
rr = [| 0, 0, 5, 0, 1, 1, 10, 5, 4, 8, 9, 0, 9, 6, 9, 4, 0, 9, 4, 1, 2, 8, 1, 2, 3, 3, 9, 4, 0, 10
      | 8, 0, 7, 0, 10, 5, 8, 10, 9, 5, 0, 7, 0, 10, 4, 0, 0, 3, 2, 0, 10, 0, 4, 10, 8, 7, 9, 9, 0, 8
      | 8, 9, 5, 3, 8, 4, 3, 7, 9, 6, 1, 4, 4, 10, 2, 5, 9, 7, 1, 10, 0, 0, 3, 1, 0, 3, 4, 6, 2, 3
      | 0, 10, 5, 0, 4, 0, 0, 0, 7, 0, 1, 6, 4, 0, 7, 8, 3, 4, 5, 0, 5, 10, 9, 0, 4, 0, 4, 2, 8, 0 |];
suc = [ { 2 }, 
        { 3 }, 
        { 4 }, 
        { 5 }, 
        { 6 }, 
        { 7 }, 
        { 8 }, 
        { 9 }, 
        { 10 }, 
        { 11 }, 
        { 12 }, 
        { 13 }, 
        { 14 }, 
        { 15 }, 
        { 16 }, 
        { 17 }, 
        { 18 }, 
        { 19 }, 
        { 20 }, 
        { 21 }, 
        { 22 }, 
        { 23 }, 
        { 24 }, 
        { 25 }, 
        { 26 }, 
        { 27 }, 
        { 28 }, 
        { 29 }, 
        { 30 }, 
        {  }]; 
